<number of tasks>
20


<number of equipment>
5


<cycle time>
1000


<investment costs>
1,13112
2,23190
3,29767
4,14749
5,25774


<task times>
1,-1,-1,119,356,178
2,326,191,-1,-1,143
3,-1,-1,134,420,318
4,380,224,-1,-1,172
5,-1,-1,287,418,246
6,-1,-1,182,400,242
7,433,246,-1,-1,225
8,-1,-1,100,240,164
9,-1,-1,146,335,251
10,195,-1,-1,216,-1
11,-1,-1,107,267,173
12,408,276,-1,-1,242
13,425,-1,-1,264,-1
14,307,-1,-1,293,-1
15,532,328,-1,-1,274
16,-1,-1,128,330,175
17,-1,-1,89,212,150
18,376,174,-1,-1,168
19,-1,-1,99,283,163
20,365,265,-1,-1,174


<precedence relations>
1,6
2,9
3,7
3,8
3,11
5,10
6,14
7,12
8,13
9,15
10,16
12,17
13,17
14,18
17,19
18,20


<task types>
1,3
2,2
3,3
4,2
5,3
6,3
7,2
8,3
9,3
10,1
11,3
12,2
13,1
14,1
15,2
16,3
17,3
18,2
19,3
20,2


<line depot>
1,3
2,0
3,0
4,2
5,3


<processing costs>
1,14400
2,7200
3,7200
4,14400
5,14400


<saving costs>
1,1311
2,2319
3,2976
4,1474
5,2577


<end>
